p cnf 156 612
c p weight -5 1 0
c p weight 5 -1 0
c p weight 9 6.12323399573676603586882014729198302312846062338790031898128063403419218957424163818359375E-17 0
c p weight -9 1 0
c p weight 10 1 0
c p weight -10 1 0
c p weight -7 1 0
c p weight 7 -1 0
c p weight -11 1 0
c p weight 11 -1 0
c p weight 15 -0.416146836547142406903532219075714237987995147705078125 0
c p weight -15 1 0
c p weight 16 0.9092974268256817094169264237280003726482391357421875 0
c p weight -16 1 0
c p weight -13 1 0
c p weight 13 -1 0
c p weight -17 1 0
c p weight 17 -1 0
c p weight 21 6.12323399573676603586882014729198302312846062338790031898128063403419218957424163818359375E-17 0
c p weight -21 1 0
c p weight 22 1 0
c p weight -22 1 0
c p weight -19 1 0
c p weight 19 -1 0
c p weight -23 1 0
c p weight 23 -1 0
c p weight 27 -0.416146836547142406903532219075714237987995147705078125 0
c p weight -27 1 0
c p weight 28 0.9092974268256817094169264237280003726482391357421875 0
c p weight -28 1 0
c p weight -25 1 0
c p weight 25 -1 0
c p weight -29 1 0
c p weight 29 -1 0
c p weight 34 -0.9684306916316953728340877205482684075832366943359375 0
c p weight -34 1 0
c p weight 35 0.249282962726609602643890184481278993189334869384765625 0
c p weight -35 1 0
c p weight -32 1 0
c p weight 32 -1 0
c p weight -36 1 0
c p weight 36 -1 0
c p weight -39 1 0
c p weight 39 -1 0
c p weight 43 6.12323399573676603586882014729198302312846062338790031898128063403419218957424163818359375E-17 0
c p weight -43 1 0
c p weight 44 1 0
c p weight -44 1 0
c p weight -41 1 0
c p weight 41 -1 0
c p weight -45 1 0
c p weight 45 -1 0
c p weight 49 -0.416146836547142406903532219075714237987995147705078125 0
c p weight -49 1 0
c p weight 50 0.9092974268256817094169264237280003726482391357421875 0
c p weight -50 1 0
c p weight -47 1 0
c p weight 47 -1 0
c p weight -51 1 0
c p weight 51 -1 0
c p weight 55 6.12323399573676603586882014729198302312846062338790031898128063403419218957424163818359375E-17 0
c p weight -55 1 0
c p weight 56 1 0
c p weight -56 1 0
c p weight -53 1 0
c p weight 53 -1 0
c p weight -57 1 0
c p weight 57 -1 0
c p weight 61 -0.416146836547142406903532219075714237987995147705078125 0
c p weight -61 1 0
c p weight 62 0.9092974268256817094169264237280003726482391357421875 0
c p weight -62 1 0
c p weight -59 1 0
c p weight 59 -1 0
c p weight -63 1 0
c p weight 63 -1 0
c p weight 68 -0.9684306916316953728340877205482684075832366943359375 0
c p weight -68 1 0
c p weight 69 0.249282962726609602643890184481278993189334869384765625 0
c p weight -69 1 0
c p weight -66 1 0
c p weight 66 -1 0
c p weight -70 1 0
c p weight 70 -1 0
c p weight 75 1 0
c p weight -75 1 0
c p weight 76 0 0
c p weight -76 1 0
c p weight -73 1 0
c p weight 73 -1 0
c p weight 79 6.12323399573676603586882014729198302312846062338790031898128063403419218957424163818359375E-17 0
c p weight -79 1 0
c p weight 80 1 0
c p weight -80 1 0
c p weight -77 1 0
c p weight 77 -1 0
c p weight 83 -0.9980980334074784909859090475947596132755279541015625 0
c p weight -83 1 0
c p weight 84 -0.0616467007075314488151462910536793060600757598876953125 0
c p weight -84 1 0
c p weight -81 1 0
c p weight 81 -1 0
c p weight 87 6.12323399573676603586882014729198302312846062338790031898128063403419218957424163818359375E-17 0
c p weight -87 1 0
c p weight 88 1 0
c p weight -88 1 0
c p weight -85 1 0
c p weight 85 -1 0
c p weight 91 -1 0
c p weight -91 1 0
c p weight 92 3.673940397442059375002259206809000622711899723162043418511757408850826323032379150390625E-16 0
c p weight -92 1 0
c p weight -89 1 0
c p weight 89 -1 0
c p weight 95 1 0
c p weight -95 1 0
c p weight 96 0 0
c p weight -96 1 0
c p weight -93 1 0
c p weight 93 -1 0
c p weight 99 6.12323399573676603586882014729198302312846062338790031898128063403419218957424163818359375E-17 0
c p weight -99 1 0
c p weight 100 1 0
c p weight -100 1 0
c p weight -97 1 0
c p weight 97 -1 0
c p weight 103 -0.9961957555388583074318376020528376102447509765625 0
c p weight -103 1 0
c p weight 104 -0.0871436552272350228864894461366930045187473297119140625 0
c p weight -104 1 0
c p weight -101 1 0
c p weight 101 -1 0
c p weight 107 6.12323399573676603586882014729198302312846062338790031898128063403419218957424163818359375E-17 0
c p weight -107 1 0
c p weight 108 1 0
c p weight -108 1 0
c p weight -105 1 0
c p weight 105 -1 0
c p weight 111 -1 0
c p weight -111 1 0
c p weight 112 3.673940397442059375002259206809000622711899723162043418511757408850826323032379150390625E-16 0
c p weight -112 1 0
c p weight -109 1 0
c p weight 109 -1 0
c p weight -113 1 0
c p weight 113 -1 0
c p weight 118 1 0
c p weight -118 1 0
c p weight 119 0 0
c p weight -119 1 0
c p weight -116 1 0
c p weight 116 -1 0
c p weight 122 6.12323399573676603586882014729198302312846062338790031898128063403419218957424163818359375E-17 0
c p weight -122 1 0
c p weight 123 1 0
c p weight -123 1 0
c p weight -120 1 0
c p weight 120 -1 0
c p weight 126 -0.86820057764695202084936909159296192228794097900390625 0
c p weight -126 1 0
c p weight 127 -0.496213418776133952103890578655409626662731170654296875 0
c p weight -127 1 0
c p weight -124 1 0
c p weight 124 -1 0
c p weight 130 6.12323399573676603586882014729198302312846062338790031898128063403419218957424163818359375E-17 0
c p weight -130 1 0
c p weight 131 1 0
c p weight -131 1 0
c p weight -128 1 0
c p weight 128 -1 0
c p weight 134 -1 0
c p weight -134 1 0
c p weight 135 3.673940397442059375002259206809000622711899723162043418511757408850826323032379150390625E-16 0
c p weight -135 1 0
c p weight -132 1 0
c p weight 132 -1 0
c p weight 138 1 0
c p weight -138 1 0
c p weight 139 0 0
c p weight -139 1 0
c p weight -136 1 0
c p weight 136 -1 0
c p weight 142 6.12323399573676603586882014729198302312846062338790031898128063403419218957424163818359375E-17 0
c p weight -142 1 0
c p weight 143 1 0
c p weight -143 1 0
c p weight -140 1 0
c p weight 140 -1 0
c p weight 146 -0.58148762303661361006135166462627239525318145751953125 0
c p weight -146 1 0
c p weight 147 -0.81355524966361636440836946349008940160274505615234375 0
c p weight -147 1 0
c p weight -144 1 0
c p weight 144 -1 0
c p weight 150 6.12323399573676603586882014729198302312846062338790031898128063403419218957424163818359375E-17 0
c p weight -150 1 0
c p weight 151 1 0
c p weight -151 1 0
c p weight -148 1 0
c p weight 148 -1 0
c p weight 154 -1 0
c p weight -154 1 0
c p weight 155 3.673940397442059375002259206809000622711899723162043418511757408850826323032379150390625E-16 0
c p weight -155 1 0
c p weight -152 1 0
c p weight 152 -1 0
c p weight 156 0.5 0
c p weight -156 1 0
156 0
-3 0
-1 0
-5 1 0
-5 2 0
5 -1 -2 0
6 1 -2 0
6 -1 2 0
-6 1 2 0
-6 -1 -2 0
-7 8 0
-7 6 0
-7 -1 0
7 -8 1 -6 0
8 -1 6 0
-8 1 6 0
-9 6 0
8 -9 -1 0
-8 -9 1 0
8 9 1 -6 0
-8 9 -1 -6 0
-10 6 0
8 -10 1 0
-8 -10 -1 0
8 10 -1 -6 0
-8 10 1 -6 0
-11 8 0
-11 6 0
11 -8 -6 0
12 8 -6 0
12 -8 6 0
-12 8 6 0
-12 -8 -6 0
-13 8 0
-13 12 0
-13 -14 0
13 14 -8 -12 0
14 8 -12 0
-14 8 12 0
-15 8 0
14 -15 -12 0
-14 -15 12 0
14 15 -8 12 0
-14 15 -8 -12 0
-16 8 0
14 -16 12 0
-14 -16 -12 0
14 16 -8 -12 0
-14 16 -8 12 0
-17 3 0
-17 4 0
17 -3 -4 0
18 3 -4 0
18 -3 4 0
-18 3 4 0
-18 -3 -4 0
-19 20 0
-19 18 0
-19 -3 0
19 -20 3 -18 0
20 -3 18 0
-20 3 18 0
-21 18 0
20 -21 -3 0
-20 -21 3 0
20 21 3 -18 0
-20 21 -3 -18 0
-22 18 0
20 -22 3 0
-20 -22 -3 0
20 22 -3 -18 0
-20 22 3 -18 0
-23 20 0
-23 18 0
23 -20 -18 0
24 20 -18 0
24 -20 18 0
-24 20 18 0
-24 -20 -18 0
-25 20 0
-25 24 0
-25 -26 0
25 26 -20 -24 0
26 20 -24 0
-26 20 24 0
-27 20 0
26 -27 -24 0
-26 -27 24 0
26 27 -20 24 0
-26 27 -20 -24 0
-28 20 0
26 -28 24 0
-26 -28 -24 0
26 28 -20 -24 0
-26 28 -20 24 0
-29 8 0
-29 26 0
-29 20 -14 0
-29 -20 14 0
29 -8 20 14 -26 0
29 -8 -20 -14 -26 0
31 8 -20 0
31 -8 20 0
-31 8 20 0
-31 -8 -20 0
30 14 -26 0
30 -14 26 0
-30 14 26 0
-30 -14 -26 0
-32 31 0
-32 26 0
-32 -33 0
32 33 -31 -26 0
33 31 -26 0
-33 31 26 0
-34 31 0
33 -34 -26 0
-33 -34 26 0
33 34 -31 26 0
-33 34 -31 -26 0
-35 31 0
33 -35 26 0
-33 -35 -26 0
33 35 -31 -26 0
-33 35 -31 26 0
-36 8 0
-36 33 0
-36 31 -30 0
-36 -31 30 0
36 -8 31 30 -33 0
36 -8 -31 -30 -33 0
38 8 -31 0
38 -8 31 0
-38 8 31 0
-38 -8 -31 0
37 30 -33 0
37 -30 33 0
-37 30 33 0
-37 -30 -33 0
-39 8 0
-39 37 0
39 -8 -37 0
40 8 -37 0
40 -8 37 0
-40 8 37 0
-40 -8 -37 0
-41 42 0
-41 40 0
-41 -8 0
41 -42 8 -40 0
42 -8 40 0
-42 8 40 0
-43 40 0
42 -43 -8 0
-42 -43 8 0
42 43 8 -40 0
-42 43 -8 -40 0
-44 40 0
42 -44 8 0
-42 -44 -8 0
42 44 -8 -40 0
-42 44 8 -40 0
-45 42 0
-45 40 0
45 -42 -40 0
46 42 -40 0
46 -42 40 0
-46 42 40 0
-46 -42 -40 0
-47 42 0
-47 46 0
-47 -48 0
47 48 -42 -46 0
48 42 -46 0
-48 42 46 0
-49 42 0
48 -49 -46 0
-48 -49 46 0
48 49 -42 46 0
-48 49 -42 -46 0
-50 42 0
48 -50 46 0
-48 -50 -46 0
48 50 -42 -46 0
-48 50 -42 46 0
-51 38 0
-51 33 0
51 -38 -33 0
52 38 -33 0
52 -38 33 0
-52 38 33 0
-52 -38 -33 0
-53 54 0
-53 52 0
-53 -38 0
53 -54 38 -52 0
54 -38 52 0
-54 38 52 0
-55 52 0
54 -55 -38 0
-54 -55 38 0
54 55 38 -52 0
-54 55 -38 -52 0
-56 52 0
54 -56 38 0
-54 -56 -38 0
54 56 -38 -52 0
-54 56 38 -52 0
-57 54 0
-57 52 0
57 -54 -52 0
58 54 -52 0
58 -54 52 0
-58 54 52 0
-58 -54 -52 0
-59 54 0
-59 58 0
-59 -60 0
59 60 -54 -58 0
60 54 -58 0
-60 54 58 0
-61 54 0
60 -61 -58 0
-60 -61 58 0
60 61 -54 58 0
-60 61 -54 -58 0
-62 54 0
60 -62 58 0
-60 -62 -58 0
60 62 -54 -58 0
-60 62 -54 58 0
-63 42 0
-63 60 0
-63 54 -48 0
-63 -54 48 0
63 -42 54 48 -60 0
63 -42 -54 -48 -60 0
65 42 -54 0
65 -42 54 0
-65 42 54 0
-65 -42 -54 0
64 48 -60 0
64 -48 60 0
-64 48 60 0
-64 -48 -60 0
-66 65 0
-66 60 0
-66 -67 0
66 67 -65 -60 0
67 65 -60 0
-67 65 60 0
-68 65 0
67 -68 -60 0
-67 -68 60 0
67 68 -65 60 0
-67 68 -65 -60 0
-69 65 0
67 -69 60 0
-67 -69 -60 0
67 69 -65 -60 0
-67 69 -65 60 0
-70 42 0
-70 67 0
-70 65 -64 0
-70 -65 64 0
70 -42 65 64 -67 0
70 -42 -65 -64 -67 0
72 42 -65 0
72 -42 65 0
-72 42 65 0
-72 -42 -65 0
71 64 -67 0
71 -64 67 0
-71 64 67 0
-71 -64 -67 0
-73 42 0
-73 71 0
-73 -74 0
73 74 -42 -71 0
74 42 -71 0
-74 42 71 0
-75 42 0
74 -75 -71 0
-74 -75 71 0
74 75 -42 71 0
-74 75 -42 -71 0
-76 42 0
74 -76 71 0
-74 -76 -71 0
74 76 -42 -71 0
-74 76 -42 71 0
-77 78 0
-77 74 0
-77 -42 0
77 -78 42 -74 0
78 -42 74 0
-78 42 74 0
-79 74 0
78 -79 -42 0
-78 -79 42 0
78 79 42 -74 0
-78 79 -42 -74 0
-80 74 0
78 -80 42 0
-78 -80 -42 0
78 80 -42 -74 0
-78 80 42 -74 0
-81 78 0
-81 74 0
-81 -82 0
81 82 -78 -74 0
82 78 -74 0
-82 78 74 0
-83 78 0
82 -83 -74 0
-82 -83 74 0
82 83 -78 74 0
-82 83 -78 -74 0
-84 78 0
82 -84 74 0
-82 -84 -74 0
82 84 -78 -74 0
-82 84 -78 74 0
-85 86 0
-85 82 0
-85 -78 0
85 -86 78 -82 0
86 -78 82 0
-86 78 82 0
-87 82 0
86 -87 -78 0
-86 -87 78 0
86 87 78 -82 0
-86 87 -78 -82 0
-88 82 0
86 -88 78 0
-86 -88 -78 0
86 88 -78 -82 0
-86 88 78 -82 0
-89 86 0
-89 82 0
-89 -90 0
89 90 -86 -82 0
90 86 -82 0
-90 86 82 0
-91 86 0
90 -91 -82 0
-90 -91 82 0
90 91 -86 82 0
-90 91 -86 -82 0
-92 86 0
90 -92 82 0
-90 -92 -82 0
90 92 -86 -82 0
-90 92 -86 82 0
-93 72 0
-93 67 0
-93 -94 0
93 94 -72 -67 0
94 72 -67 0
-94 72 67 0
-95 72 0
94 -95 -67 0
-94 -95 67 0
94 95 -72 67 0
-94 95 -72 -67 0
-96 72 0
94 -96 67 0
-94 -96 -67 0
94 96 -72 -67 0
-94 96 -72 67 0
-97 98 0
-97 94 0
-97 -72 0
97 -98 72 -94 0
98 -72 94 0
-98 72 94 0
-99 94 0
98 -99 -72 0
-98 -99 72 0
98 99 72 -94 0
-98 99 -72 -94 0
-100 94 0
98 -100 72 0
-98 -100 -72 0
98 100 -72 -94 0
-98 100 72 -94 0
-101 98 0
-101 94 0
-101 -102 0
101 102 -98 -94 0
102 98 -94 0
-102 98 94 0
-103 98 0
102 -103 -94 0
-102 -103 94 0
102 103 -98 94 0
-102 103 -98 -94 0
-104 98 0
102 -104 94 0
-102 -104 -94 0
102 104 -98 -94 0
-102 104 -98 94 0
-105 106 0
-105 102 0
-105 -98 0
105 -106 98 -102 0
106 -98 102 0
-106 98 102 0
-107 102 0
106 -107 -98 0
-106 -107 98 0
106 107 98 -102 0
-106 107 -98 -102 0
-108 102 0
106 -108 98 0
-106 -108 -98 0
106 108 -98 -102 0
-106 108 98 -102 0
-109 106 0
-109 102 0
-109 -110 0
109 110 -106 -102 0
110 106 -102 0
-110 106 102 0
-111 106 0
110 -111 -102 0
-110 -111 102 0
110 111 -106 102 0
-110 111 -106 -102 0
-112 106 0
110 -112 102 0
-110 -112 -102 0
110 112 -106 -102 0
-110 112 -106 102 0
-113 86 0
-113 110 0
-113 106 -90 0
-113 -106 90 0
113 -86 106 90 -110 0
113 -86 -106 -90 -110 0
115 86 -106 0
115 -86 106 0
-115 86 106 0
-115 -86 -106 0
114 90 -110 0
114 -90 110 0
-114 90 110 0
-114 -90 -110 0
-116 86 0
-116 114 0
-116 -117 0
116 117 -86 -114 0
117 86 -114 0
-117 86 114 0
-118 86 0
117 -118 -114 0
-117 -118 114 0
117 118 -86 114 0
-117 118 -86 -114 0
-119 86 0
117 -119 114 0
-117 -119 -114 0
117 119 -86 -114 0
-117 119 -86 114 0
-120 121 0
-120 117 0
-120 -86 0
120 -121 86 -117 0
121 -86 117 0
-121 86 117 0
-122 117 0
121 -122 -86 0
-121 -122 86 0
121 122 86 -117 0
-121 122 -86 -117 0
-123 117 0
121 -123 86 0
-121 -123 -86 0
121 123 -86 -117 0
-121 123 86 -117 0
-124 121 0
-124 117 0
-124 -125 0
124 125 -121 -117 0
125 121 -117 0
-125 121 117 0
-126 121 0
125 -126 -117 0
-125 -126 117 0
125 126 -121 117 0
-125 126 -121 -117 0
-127 121 0
125 -127 117 0
-125 -127 -117 0
125 127 -121 -117 0
-125 127 -121 117 0
-128 129 0
-128 125 0
-128 -121 0
128 -129 121 -125 0
129 -121 125 0
-129 121 125 0
-130 125 0
129 -130 -121 0
-129 -130 121 0
129 130 121 -125 0
-129 130 -121 -125 0
-131 125 0
129 -131 121 0
-129 -131 -121 0
129 131 -121 -125 0
-129 131 121 -125 0
-132 129 0
-132 125 0
-132 -133 0
132 133 -129 -125 0
133 129 -125 0
-133 129 125 0
-134 129 0
133 -134 -125 0
-133 -134 125 0
133 134 -129 125 0
-133 134 -129 -125 0
-135 129 0
133 -135 125 0
-133 -135 -125 0
133 135 -129 -125 0
-133 135 -129 125 0
-136 115 0
-136 110 0
-136 -137 0
136 137 -115 -110 0
137 115 -110 0
-137 115 110 0
-138 115 0
137 -138 -110 0
-137 -138 110 0
137 138 -115 110 0
-137 138 -115 -110 0
-139 115 0
137 -139 110 0
-137 -139 -110 0
137 139 -115 -110 0
-137 139 -115 110 0
-140 141 0
-140 137 0
-140 -115 0
140 -141 115 -137 0
141 -115 137 0
-141 115 137 0
-142 137 0
141 -142 -115 0
-141 -142 115 0
141 142 115 -137 0
-141 142 -115 -137 0
-143 137 0
141 -143 115 0
-141 -143 -115 0
141 143 -115 -137 0
-141 143 115 -137 0
-144 141 0
-144 137 0
-144 -145 0
144 145 -141 -137 0
145 141 -137 0
-145 141 137 0
-146 141 0
145 -146 -137 0
-145 -146 137 0
145 146 -141 137 0
-145 146 -141 -137 0
-147 141 0
145 -147 137 0
-145 -147 -137 0
145 147 -141 -137 0
-145 147 -141 137 0
-148 149 0
-148 145 0
-148 -141 0
148 -149 141 -145 0
149 -141 145 0
-149 141 145 0
-150 145 0
149 -150 -141 0
-149 -150 141 0
149 150 141 -145 0
-149 150 -141 -145 0
-151 145 0
149 -151 141 0
-149 -151 -141 0
149 151 -141 -145 0
-149 151 141 -145 0
-152 149 0
-152 145 0
-152 -153 0
152 153 -149 -145 0
153 149 -145 0
-153 149 145 0
-154 149 0
153 -154 -145 0
-153 -154 145 0
153 154 -149 145 0
-153 154 -149 -145 0
-155 149 0
153 -155 145 0
-153 -155 -145 0
153 155 -149 -145 0
-153 155 -149 145 0
-129 0
-149 0
-153 0
